StringID Type x y demand ReadyTime DueDate ServiceTime
D0 d 35 35 0 0 1000 0
Dt d 35 35 0 0 1000 0
S0 f 35 35 0 0 1000 0
S13 f 21 22 0 0 1000 0
S15 f 34 16 0 0 1000 0
C77 c1 53 43 14 86 224 10
C17 c1 5 30 2 0 959 10
C37 c2 20 20 8 0 968 10
C18 c2 20 40 12 403 513 10
C72 c2 47 16 25 104 252 10
P0 p 8 39 0 0 1000 45
param Q := 60.63
param CV := 1000
param r := 1
param g := 0.49
param V := 1
